(set-logic HORN)

(declare-datatypes ((TSLL 0)) (((TSLL  (next Int) (data Int)))))
(declare-datatypes ((HeapObject 0)) (((O_Int  (getInt Int)) (O_UInt  (getUInt Int)) (O_Addr  (getAddr Int)) (O_TSLL  (getTSLL TSLL)) (defObj ))))
(declare-datatypes ((Heap 0)) (((HeapCtor  (HeapSize Int) (HeapContents (Array Int HeapObject))))))

(declare-fun |inv_main55| ( Heap Int Int Int ) Bool)
(declare-fun |inv_main32| ( Heap Int Int Int ) Bool)
(declare-fun |inv_main4| ( Heap Int ) Bool)
(declare-fun |inv_main11| ( Heap Int Int Int ) Bool)
(declare-fun |inv_main34| ( Heap Int Int Int ) Bool)
(declare-fun |inv_main2| ( Heap ) Bool)
(declare-fun |inv_main40| ( Heap Int Int Int ) Bool)
(declare-fun |inv_main8| ( Heap Int Int Int ) Bool)
(declare-fun |inv_main38| ( Heap Int Int Int ) Bool)
(declare-fun |inv_main16| ( Heap Int Int Int ) Bool)
(declare-fun |inv_main50| ( Heap Int Int Int ) Bool)
(declare-fun |inv_main12| ( Heap Int Int Int Int ) Bool)
(declare-fun |inv_main3| ( Heap Int ) Bool)
(declare-fun |inv_main29| ( Heap Int Int Int ) Bool)
(declare-fun |CHC_COMP_FALSE| ( ) Bool)
(declare-fun |inv_main42| ( Heap Int Int Int ) Bool)
(declare-fun |inv_main37| ( Heap Int Int Int ) Bool)
(declare-fun |inv_main44| ( Heap Int Int Int Int ) Bool)
(declare-fun |inv_main45| ( Heap Int Int Int Int ) Bool)
(declare-fun |inv_main26| ( Heap Int Int Int ) Bool)
(declare-fun |inv_main13| ( Heap Int Int Int ) Bool)

(assert
  (forall ( (v_0 Heap) ) 
    (=>
      (and
        (and true (= v_0 (HeapCtor 0 ((as const (Array Int HeapObject)) defObj))))
      )
      (inv_main2 v_0)
    )
  )
)
(assert
  (forall ( (A Int) (B Int) (C Int) (D Heap) (E Int) (F Int) (G Int) (H Int) (I Int) (J Heap) ) 
    (=>
      (and
        (inv_main45 J I H G F)
        (let ((a!1 (ite (and (not (<= H 0)) (>= (HeapSize J) H))
                (select (HeapContents J) H)
                defObj)))
(let ((a!2 (not (<= (next (getTSLL a!1)) 0))))
(let ((a!3 (and a!2 (>= (HeapSize J) (next (getTSLL a!1))))))
(let ((a!4 (ite a!3 (select (HeapContents J) (next (getTSLL a!1))) defObj)))
(let ((a!5 (+ F (* (- 1) (data (getTSLL a!4))))))
(let ((a!6 (or (and (<= 1 a!5) (= E 1)) (and (not (<= 1 a!5)) (= E 0)))))
  (and (not (= E 0))
       (= C I)
       (= B H)
       (= A G)
       ((_ is O_TSLL) a!4)
       ((_ is O_TSLL) a!1)
       a!6
       (= D J))))))))
      )
      (inv_main40 D C B A)
    )
  )
)
(assert
  (forall ( (A Int) (B Heap) (C TSLL) (D Heap) ) 
    (=>
      (and
        (inv_main2 D)
        (let ((a!1 (HeapCtor (+ 1 (HeapSize D))
                     (store (HeapContents D) (+ 1 (HeapSize D)) (O_TSLL C)))))
  (and (= A (+ 1 (HeapSize D))) (= B a!1)))
      )
      (inv_main3 B A)
    )
  )
)
(assert
  (forall ( (A Int) (B Int) (C Int) (D Heap) (E Int) (F Int) (G Int) (H Int) (I Heap) ) 
    (=>
      (and
        (inv_main32 I H G F)
        (let ((a!1 (ite (and (not (<= G 0)) (>= (HeapSize I) G))
                (select (HeapContents I) G)
                defObj)))
  (and (= C H)
       (= E 0)
       (= E (data (getTSLL a!1)))
       (= B G)
       (= A F)
       ((_ is O_TSLL) a!1)
       (= D I)))
      )
      (inv_main37 D C B A)
    )
  )
)
(assert
  (forall ( (A Int) (B Int) (C Heap) (D Int) (E Int) (F Int) (G Int) (H Int) (I Heap) ) 
    (=>
      (and
        (inv_main13 I H G F)
        (let ((a!1 (ite (and (not (<= G 0)) (>= (HeapSize I) G))
                (select (HeapContents I) G)
                defObj)))
(let ((a!2 (O_TSLL (TSLL H (data (getTSLL a!1))))))
(let ((a!3 (ite (and (not (<= G 0)) (>= (HeapSize I) G))
                (HeapCtor (HeapSize I) (store (HeapContents I) G a!2))
                I)))
  (and (not (= E 2))
       (not (= E 1))
       (= E F)
       (not (= D 0))
       (= B H)
       (= A G)
       ((_ is O_TSLL) a!1)
       (= C a!3)))))
      )
      (inv_main8 C B A E)
    )
  )
)
(assert
  (forall ( (A Int) (B Int) (C Heap) (D Int) (E Int) (F Int) (G Int) (H Int) (I Heap) ) 
    (=>
      (and
        (inv_main16 I H G F)
        (let ((a!1 (ite (and (not (<= G 0)) (>= (HeapSize I) G))
                (select (HeapContents I) G)
                defObj)))
(let ((a!2 (O_TSLL (TSLL (next (getTSLL a!1)) F))))
(let ((a!3 (ite (and (not (<= G 0)) (>= (HeapSize I) G))
                (HeapCtor (HeapSize I) (store (HeapContents I) G a!2))
                I)))
  (and (not (= 0 D))
       (= E 0)
       (= D G)
       (= B H)
       (= A F)
       ((_ is O_TSLL) a!1)
       (= C a!3)))))
      )
      (inv_main8 C B D A)
    )
  )
)
(assert
  (forall ( (A Int) (B Heap) (C Int) (D Int) (E Heap) (v_5 Int) (v_6 Int) ) 
    (=>
      (and
        (inv_main4 E D)
        (let ((a!1 (ite (and (not (<= D 0)) (>= (HeapSize E) D))
                (select (HeapContents E) D)
                defObj)))
(let ((a!2 (O_TSLL (TSLL (next (getTSLL a!1)) 0))))
(let ((a!3 (ite (and (not (<= D 0)) (>= (HeapSize E) D))
                (HeapCtor (HeapSize E) (store (HeapContents E) D a!2))
                E)))
  (and (= C 0) (= A D) ((_ is O_TSLL) a!1) (= B a!3) (= v_5 A) (= 1 v_6)))))
      )
      (inv_main8 B A v_5 v_6)
    )
  )
)
(assert
  (forall ( (A Int) (B Int) (C Int) (D Int) (E Heap) (F Int) (G Int) (H Int) (I Heap) ) 
    (=>
      (and
        (inv_main37 I H G F)
        (let ((a!1 (ite (and (not (<= H 0)) (>= (HeapSize I) H))
                (select (HeapContents I) H)
                defObj)))
  (and (= C G)
       (= D H)
       (= B F)
       (= A (next (getTSLL a!1)))
       ((_ is O_TSLL) a!1)
       (= E I)))
      )
      (inv_main50 E D A B)
    )
  )
)
(assert
  (forall ( (A Heap) (B Int) (C Int) (D Int) (E Int) (F Heap) (G Int) (H Int) (I Int) (J Heap) ) 
    (=>
      (and
        (inv_main55 J I H G)
        (let ((a!1 (ite (and (not (<= H 0)) (>= (HeapSize J) H))
                (select (HeapContents J) H)
                defObj))
      (a!2 (ite (and (not (<= E 0)) (>= (HeapSize F) E))
                (HeapCtor (HeapSize F) (store (HeapContents F) E defObj))
                F)))
  (and (= F J)
       (= D H)
       (= E I)
       (= C G)
       (= B (next (getTSLL a!1)))
       ((_ is O_TSLL) a!1)
       (= A a!2)))
      )
      (inv_main50 A E B C)
    )
  )
)
(assert
  (forall ( (A Int) (B Heap) (C TSLL) (D Int) (E Int) (F Heap) (G Int) (H Int) (I Int) (J Int) (K Int) (L Heap) ) 
    (=>
      (and
        (inv_main16 L K J I)
        (let ((a!1 (ite (and (not (<= J 0)) (>= (HeapSize L) J))
                (select (HeapContents L) J)
                defObj))
      (a!4 (HeapCtor (+ 1 (HeapSize F))
                     (store (HeapContents F) (+ 1 (HeapSize F)) (O_TSLL C)))))
(let ((a!2 (O_TSLL (TSLL (next (getTSLL a!1)) I))))
(let ((a!3 (ite (and (not (<= J 0)) (>= (HeapSize L) J))
                (HeapCtor (HeapSize L) (store (HeapContents L) J a!2))
                L)))
  (and (= F a!3)
       (not (= 0 G))
       (= A (+ 1 (HeapSize F)))
       (not (= H 0))
       (= G J)
       (= E K)
       (= D I)
       ((_ is O_TSLL) a!1)
       (= B a!4)))))
      )
      (inv_main12 B E G D A)
    )
  )
)
(assert
  (forall ( (A Int) (B Heap) (C TSLL) (D Int) (E Heap) (F Int) (G Int) (H Heap) (v_8 Int) (v_9 Int) ) 
    (=>
      (and
        (inv_main4 H G)
        (let ((a!1 (HeapCtor (+ 1 (HeapSize E))
                     (store (HeapContents E) (+ 1 (HeapSize E)) (O_TSLL C))))
      (a!2 (ite (and (not (<= G 0)) (>= (HeapSize H) G))
                (select (HeapContents H) G)
                defObj)))
(let ((a!3 (O_TSLL (TSLL (next (getTSLL a!2)) 0))))
(let ((a!4 (ite (and (not (<= G 0)) (>= (HeapSize H) G))
                (HeapCtor (HeapSize H) (store (HeapContents H) G a!3))
                H)))
  (and (= B a!1)
       (not (= F 0))
       (= D G)
       (= A (+ 1 (HeapSize E)))
       ((_ is O_TSLL) a!2)
       (= E a!4)
       (= v_8 D)
       (= 1 v_9)))))
      )
      (inv_main12 B D v_8 v_9 A)
    )
  )
)
(assert
  (forall ( (A Int) (B Int) (C Int) (D Int) (E Int) (F Heap) ) 
    (=>
      (and
        (inv_main44 F E D C B)
        (let ((a!1 (ite (and (not (<= D 0)) (>= (HeapSize F) D))
                (select (HeapContents F) D)
                defObj)))
  (and (= A (data (getTSLL a!1))) ((_ is O_TSLL) a!1) (not (= B 0))))
      )
      (inv_main45 F E D C A)
    )
  )
)
(assert
  (forall ( (A Int) (B Int) (C Int) (D Int) (E Heap) ) 
    (=>
      (and
        (inv_main38 E D C B)
        (let ((a!1 (ite (and (not (<= C 0)) (>= (HeapSize E) C))
                (select (HeapContents E) C)
                defObj)))
(let ((a!2 (not (<= (next (getTSLL a!1)) 0))))
(let ((a!3 (and a!2 (>= (HeapSize E) (next (getTSLL a!1))))))
(let ((a!4 (ite a!3 (select (HeapContents E) (next (getTSLL a!1))) defObj)))
  (and ((_ is O_TSLL) a!4) ((_ is O_TSLL) a!1) (= A (data (getTSLL a!4))))))))
      )
      (inv_main44 E D C B A)
    )
  )
)
(assert
  (forall ( (A Int) (B Int) (C Int) (D Heap) (E Int) (F Int) (G Int) (H Int) (I Heap) ) 
    (=>
      (and
        (inv_main13 I H G F)
        (let ((a!1 (ite (and (not (<= G 0)) (>= (HeapSize I) G))
                (select (HeapContents I) G)
                defObj)))
(let ((a!2 (O_TSLL (TSLL H (data (getTSLL a!1))))))
(let ((a!3 (ite (and (not (<= G 0)) (>= (HeapSize I) G))
                (HeapCtor (HeapSize I) (store (HeapContents I) G a!2))
                I)))
  (and (= C H) (= E 0) (= B G) (= A F) ((_ is O_TSLL) a!1) (= D a!3)))))
      )
      (inv_main16 D C B A)
    )
  )
)
(assert
  (forall ( (A Int) (B Int) (C Heap) (D Int) (E Int) (F Int) (G Int) (H Int) (I Heap) (v_9 Int) ) 
    (=>
      (and
        (inv_main13 I H G F)
        (let ((a!1 (ite (and (not (<= G 0)) (>= (HeapSize I) G))
                (select (HeapContents I) G)
                defObj)))
(let ((a!2 (O_TSLL (TSLL H (data (getTSLL a!1))))))
(let ((a!3 (ite (and (not (<= G 0)) (>= (HeapSize I) G))
                (HeapCtor (HeapSize I) (store (HeapContents I) G a!2))
                I)))
  (and (= E 1)
       (= E F)
       (not (= D 0))
       (= B H)
       (= A G)
       ((_ is O_TSLL) a!1)
       (= C a!3)
       (= 2 v_9)))))
      )
      (inv_main16 C B A v_9)
    )
  )
)
(assert
  (forall ( (A Int) (B Int) (C Heap) (D Int) (E Int) (F Int) (G Int) (H Int) (I Heap) (v_9 Int) ) 
    (=>
      (and
        (inv_main13 I H G F)
        (let ((a!1 (ite (and (not (<= G 0)) (>= (HeapSize I) G))
                (select (HeapContents I) G)
                defObj)))
(let ((a!2 (O_TSLL (TSLL H (data (getTSLL a!1))))))
(let ((a!3 (ite (and (not (<= G 0)) (>= (HeapSize I) G))
                (HeapCtor (HeapSize I) (store (HeapContents I) G a!2))
                I)))
  (and (= E 2)
       (not (= E 1))
       (= E F)
       (not (= D 0))
       (= B H)
       (= A G)
       ((_ is O_TSLL) a!1)
       (= C a!3)
       (= 3 v_9)))))
      )
      (inv_main16 C B A v_9)
    )
  )
)
(assert
  (forall ( (A Int) (B Int) (C Heap) (D Int) (E Int) (F Int) (G Int) (H Heap) ) 
    (=>
      (and
        (inv_main16 H G F E)
        (let ((a!1 (ite (and (not (<= F 0)) (>= (HeapSize H) F))
                (select (HeapContents H) F)
                defObj)))
(let ((a!2 (O_TSLL (TSLL (next (getTSLL a!1)) E))))
(let ((a!3 (ite (and (not (<= F 0)) (>= (HeapSize H) F))
                (HeapCtor (HeapSize H) (store (HeapContents H) F a!2))
                H)))
  (and (= 0 D) (= B G) (= D F) (= A E) ((_ is O_TSLL) a!1) (= C a!3)))))
      )
      (inv_main26 C B D A)
    )
  )
)
(assert
  (forall ( (A Heap) (B Int) (C Int) (D Int) (E Heap) ) 
    (=>
      (and
        (inv_main8 E D C B)
        (let ((a!1 (ite (and (not (<= C 0)) (>= (HeapSize E) C))
                (select (HeapContents E) C)
                defObj)))
(let ((a!2 (O_TSLL (TSLL (next (getTSLL a!1)) B))))
(let ((a!3 (ite (and (not (<= C 0)) (>= (HeapSize E) C))
                (HeapCtor (HeapSize E) (store (HeapContents E) C a!2))
                E)))
  (and ((_ is O_TSLL) a!1) (= A a!3)))))
      )
      (inv_main29 A D C B)
    )
  )
)
(assert
  (forall ( (A Int) (B Int) (C Int) (D Int) (E Heap) (F Int) (G Int) (H Int) (I Heap) ) 
    (=>
      (and
        (inv_main40 I H G F)
        (let ((a!1 (ite (and (not (<= G 0)) (>= (HeapSize I) G))
                (select (HeapContents I) G)
                defObj)))
  (and (= C G)
       (= D H)
       (= B F)
       (= A (next (getTSLL a!1)))
       ((_ is O_TSLL) a!1)
       (= E I)))
      )
      (inv_main32 E D A B)
    )
  )
)
(assert
  (forall ( (A Int) (B Int) (C Int) (D Heap) (E Int) (F Int) (G Int) (H Int) (I Heap) ) 
    (=>
      (and
        (inv_main29 I H G F)
        (let ((a!1 (ite (and (not (<= H 0)) (>= (HeapSize I) H))
                (select (HeapContents I) H)
                defObj)))
  (and (not (= 0 E))
       (= C H)
       (= E (next (getTSLL a!1)))
       (= B G)
       (= A F)
       ((_ is O_TSLL) a!1)
       (= D I)))
      )
      (inv_main32 D C E A)
    )
  )
)
(assert
  (forall ( (A Int) (B Int) (C Int) (D Int) (E Heap) ) 
    (=>
      (and
        (inv_main44 E D C B A)
        (= A 0)
      )
      (inv_main42 E D C B)
    )
  )
)
(assert
  (forall ( (A Int) (B Int) (C Int) (D Heap) (E Int) (F Int) (G Int) (H Int) (I Int) (J Heap) ) 
    (=>
      (and
        (inv_main45 J I H G F)
        (let ((a!1 (ite (and (not (<= H 0)) (>= (HeapSize J) H))
                (select (HeapContents J) H)
                defObj)))
(let ((a!2 (not (<= (next (getTSLL a!1)) 0))))
(let ((a!3 (and a!2 (>= (HeapSize J) (next (getTSLL a!1))))))
(let ((a!4 (ite a!3 (select (HeapContents J) (next (getTSLL a!1))) defObj)))
(let ((a!5 (+ F (* (- 1) (data (getTSLL a!4))))))
(let ((a!6 (or (and (<= 1 a!5) (= E 1)) (and (not (<= 1 a!5)) (= E 0)))))
  (and (= E 0)
       (= C I)
       (= B H)
       (= A G)
       ((_ is O_TSLL) a!4)
       ((_ is O_TSLL) a!1)
       a!6
       (= D J))))))))
      )
      (inv_main42 D C B A)
    )
  )
)
(assert
  (forall ( (A Heap) (B Int) (C Int) (D Int) (E Int) (F Heap) ) 
    (=>
      (and
        (inv_main12 F E D C B)
        (let ((a!1 (ite (and (not (<= D 0)) (>= (HeapSize F) D))
                (select (HeapContents F) D)
                defObj)))
(let ((a!2 (O_TSLL (TSLL B (data (getTSLL a!1))))))
(let ((a!3 (ite (and (not (<= D 0)) (>= (HeapSize F) D))
                (HeapCtor (HeapSize F) (store (HeapContents F) D a!2))
                F)))
  (and ((_ is O_TSLL) a!1) (= A a!3)))))
      )
      (inv_main11 A E D C)
    )
  )
)
(assert
  (forall ( (A Int) (B Int) (C Int) (D Int) (E Heap) (F Int) (G Int) (H Int) (I Heap) ) 
    (=>
      (and
        (inv_main11 I H G F)
        (let ((a!1 (ite (and (not (<= G 0)) (>= (HeapSize I) G))
                (select (HeapContents I) G)
                defObj)))
  (and (= C G)
       (= D H)
       (= B F)
       (= A (next (getTSLL a!1)))
       ((_ is O_TSLL) a!1)
       (= E I)))
      )
      (inv_main13 E D A B)
    )
  )
)
(assert
  (forall ( (A Int) (B Int) (C Int) (D Heap) (E Int) (F Int) (G Int) (H Int) (I Heap) ) 
    (=>
      (and
        (inv_main29 I H G F)
        (let ((a!1 (ite (and (not (<= H 0)) (>= (HeapSize I) H))
                (select (HeapContents I) H)
                defObj)))
  (and (= 0 E)
       (= C H)
       (= E (next (getTSLL a!1)))
       (= B G)
       (= A F)
       ((_ is O_TSLL) a!1)
       (= D I)))
      )
      (inv_main34 D C E A)
    )
  )
)
(assert
  (forall ( (A Int) (B Int) (C Int) (D Heap) (E Int) (F Int) (G Int) (H Int) (I Heap) (v_9 Int) ) 
    (=>
      (and
        (inv_main50 I H G F)
        (let ((a!1 (ite (and (not (<= G 0)) (>= (HeapSize I) G))
                (select (HeapContents I) G)
                defObj)))
  (and (= C H)
       (not (= E 0))
       (= E (data (getTSLL a!1)))
       (= B G)
       (= A F)
       ((_ is O_TSLL) a!1)
       (= D I)
       (= v_9 B)))
      )
      (inv_main55 D B v_9 A)
    )
  )
)
(assert
  (forall ( (A Heap) (B Int) (C Heap) ) 
    (=>
      (and
        (inv_main3 C B)
        (let ((a!1 (ite (and (not (<= B 0)) (>= (HeapSize C) B))
                (select (HeapContents C) B)
                defObj)))
(let ((a!2 (O_TSLL (TSLL B (data (getTSLL a!1))))))
(let ((a!3 (ite (and (not (<= B 0)) (>= (HeapSize C) B))
                (HeapCtor (HeapSize C) (store (HeapContents C) B a!2))
                C)))
  (and ((_ is O_TSLL) a!1) (= A a!3)))))
      )
      (inv_main4 A B)
    )
  )
)
(assert
  (forall ( (A Int) (B Int) (C Int) (D Heap) (E Int) (F Int) (G Int) (H Int) (I Heap) ) 
    (=>
      (and
        (inv_main32 I H G F)
        (let ((a!1 (ite (and (not (<= G 0)) (>= (HeapSize I) G))
                (select (HeapContents I) G)
                defObj)))
  (and (= C H)
       (not (= E 0))
       (= E (data (getTSLL a!1)))
       (= B G)
       (= A F)
       ((_ is O_TSLL) a!1)
       (= D I)))
      )
      (inv_main38 D C B A)
    )
  )
)
(assert
  (forall ( (A Int) (B Heap) ) 
    (=>
      (and
        (inv_main3 B A)
        (let ((a!1 (ite (and (not (<= A 0)) (>= (HeapSize B) A))
                (select (HeapContents B) A)
                defObj)))
  (not ((_ is O_TSLL) a!1)))
      )
      CHC_COMP_FALSE
    )
  )
)
(assert
  (forall ( (A Int) (B Heap) ) 
    (=>
      (and
        (inv_main4 B A)
        (let ((a!1 (ite (and (not (<= A 0)) (>= (HeapSize B) A))
                (select (HeapContents B) A)
                defObj)))
  (not ((_ is O_TSLL) a!1)))
      )
      CHC_COMP_FALSE
    )
  )
)
(assert
  (forall ( (A Int) (B Int) (C Int) (D Int) (E Heap) ) 
    (=>
      (and
        (inv_main12 E D C B A)
        (let ((a!1 (ite (and (not (<= C 0)) (>= (HeapSize E) C))
                (select (HeapContents E) C)
                defObj)))
  (not ((_ is O_TSLL) a!1)))
      )
      CHC_COMP_FALSE
    )
  )
)
(assert
  (forall ( (A Int) (B Int) (C Int) (D Heap) ) 
    (=>
      (and
        (inv_main11 D C B A)
        (let ((a!1 (ite (and (not (<= B 0)) (>= (HeapSize D) B))
                (select (HeapContents D) B)
                defObj)))
  (not ((_ is O_TSLL) a!1)))
      )
      CHC_COMP_FALSE
    )
  )
)
(assert
  (forall ( (A Int) (B Int) (C Int) (D Heap) ) 
    (=>
      (and
        (inv_main13 D C B A)
        (let ((a!1 (ite (and (not (<= B 0)) (>= (HeapSize D) B))
                (select (HeapContents D) B)
                defObj)))
  (not ((_ is O_TSLL) a!1)))
      )
      CHC_COMP_FALSE
    )
  )
)
(assert
  (forall ( (A Int) (B Int) (C Int) (D Heap) ) 
    (=>
      (and
        (inv_main16 D C B A)
        (let ((a!1 (ite (and (not (<= B 0)) (>= (HeapSize D) B))
                (select (HeapContents D) B)
                defObj)))
  (not ((_ is O_TSLL) a!1)))
      )
      CHC_COMP_FALSE
    )
  )
)
(assert
  (forall ( (A Int) (B Int) (C Int) (D Heap) ) 
    (=>
      (and
        (inv_main26 D C B A)
        true
      )
      CHC_COMP_FALSE
    )
  )
)
(assert
  (forall ( (A Int) (B Int) (C Int) (D Heap) ) 
    (=>
      (and
        (inv_main8 D C B A)
        (let ((a!1 (ite (and (not (<= B 0)) (>= (HeapSize D) B))
                (select (HeapContents D) B)
                defObj)))
  (not ((_ is O_TSLL) a!1)))
      )
      CHC_COMP_FALSE
    )
  )
)
(assert
  (forall ( (A Int) (B Int) (C Int) (D Heap) ) 
    (=>
      (and
        (inv_main29 D C B A)
        (let ((a!1 (ite (and (not (<= C 0)) (>= (HeapSize D) C))
                (select (HeapContents D) C)
                defObj)))
  (not ((_ is O_TSLL) a!1)))
      )
      CHC_COMP_FALSE
    )
  )
)
(assert
  (forall ( (A Int) (B Int) (C Int) (D Heap) ) 
    (=>
      (and
        (inv_main34 D C B A)
        true
      )
      CHC_COMP_FALSE
    )
  )
)
(assert
  (forall ( (A Int) (B Int) (C Int) (D Heap) ) 
    (=>
      (and
        (inv_main32 D C B A)
        (let ((a!1 (ite (and (not (<= B 0)) (>= (HeapSize D) B))
                (select (HeapContents D) B)
                defObj)))
  (not ((_ is O_TSLL) a!1)))
      )
      CHC_COMP_FALSE
    )
  )
)
(assert
  (forall ( (A Int) (B Int) (C Int) (D Heap) ) 
    (=>
      (and
        (inv_main38 D C B A)
        (let ((a!1 (ite (and (not (<= B 0)) (>= (HeapSize D) B))
                (select (HeapContents D) B)
                defObj)))
  (not ((_ is O_TSLL) a!1)))
      )
      CHC_COMP_FALSE
    )
  )
)
(assert
  (forall ( (A Int) (B Int) (C Int) (D Heap) ) 
    (=>
      (and
        (inv_main38 D C B A)
        (let ((a!1 (ite (and (not (<= B 0)) (>= (HeapSize D) B))
                (select (HeapContents D) B)
                defObj)))
(let ((a!2 (not (<= (next (getTSLL a!1)) 0))))
(let ((a!3 (and a!2 (>= (HeapSize D) (next (getTSLL a!1))))))
(let ((a!4 (ite a!3 (select (HeapContents D) (next (getTSLL a!1))) defObj)))
  (and ((_ is O_TSLL) a!1) (not ((_ is O_TSLL) a!4)))))))
      )
      CHC_COMP_FALSE
    )
  )
)
(assert
  (forall ( (A Int) (B Int) (C Int) (D Int) (E Heap) ) 
    (=>
      (and
        (inv_main44 E D C B A)
        (let ((a!1 (ite (and (not (<= C 0)) (>= (HeapSize E) C))
                (select (HeapContents E) C)
                defObj)))
  (and (not ((_ is O_TSLL) a!1)) (not (= A 0))))
      )
      CHC_COMP_FALSE
    )
  )
)
(assert
  (forall ( (A Int) (B Int) (C Int) (D Int) (E Heap) ) 
    (=>
      (and
        (inv_main45 E D C B A)
        (let ((a!1 (ite (and (not (<= C 0)) (>= (HeapSize E) C))
                (select (HeapContents E) C)
                defObj)))
  (not ((_ is O_TSLL) a!1)))
      )
      CHC_COMP_FALSE
    )
  )
)
(assert
  (forall ( (A Int) (B Int) (C Int) (D Int) (E Heap) ) 
    (=>
      (and
        (inv_main45 E D C B A)
        (let ((a!1 (ite (and (not (<= C 0)) (>= (HeapSize E) C))
                (select (HeapContents E) C)
                defObj)))
(let ((a!2 (not (<= (next (getTSLL a!1)) 0))))
(let ((a!3 (and a!2 (>= (HeapSize E) (next (getTSLL a!1))))))
(let ((a!4 (ite a!3 (select (HeapContents E) (next (getTSLL a!1))) defObj)))
  (and ((_ is O_TSLL) a!1) (not ((_ is O_TSLL) a!4)))))))
      )
      CHC_COMP_FALSE
    )
  )
)
(assert
  (forall ( (A Int) (B Int) (C Int) (D Heap) ) 
    (=>
      (and
        (inv_main42 D C B A)
        true
      )
      CHC_COMP_FALSE
    )
  )
)
(assert
  (forall ( (A Int) (B Int) (C Int) (D Heap) ) 
    (=>
      (and
        (inv_main40 D C B A)
        (let ((a!1 (ite (and (not (<= B 0)) (>= (HeapSize D) B))
                (select (HeapContents D) B)
                defObj)))
  (not ((_ is O_TSLL) a!1)))
      )
      CHC_COMP_FALSE
    )
  )
)
(assert
  (forall ( (A Int) (B Int) (C Int) (D Heap) ) 
    (=>
      (and
        (inv_main37 D C B A)
        (let ((a!1 (ite (and (not (<= C 0)) (>= (HeapSize D) C))
                (select (HeapContents D) C)
                defObj)))
  (not ((_ is O_TSLL) a!1)))
      )
      CHC_COMP_FALSE
    )
  )
)
(assert
  (forall ( (A Int) (B Int) (C Int) (D Heap) ) 
    (=>
      (and
        (inv_main50 D C B A)
        (let ((a!1 (ite (and (not (<= B 0)) (>= (HeapSize D) B))
                (select (HeapContents D) B)
                defObj)))
  (not ((_ is O_TSLL) a!1)))
      )
      CHC_COMP_FALSE
    )
  )
)
(assert
  (forall ( (A Int) (B Int) (C Int) (D Heap) ) 
    (=>
      (and
        (inv_main55 D C B A)
        (let ((a!1 (ite (and (not (<= B 0)) (>= (HeapSize D) B))
                (select (HeapContents D) B)
                defObj)))
  (not ((_ is O_TSLL) a!1)))
      )
      CHC_COMP_FALSE
    )
  )
)
(assert
  (forall ( (CHC_COMP_UNUSED Bool) ) 
    (=>
      (and
        CHC_COMP_FALSE
      )
      false
    )
  )
)

(check-sat)
(exit)
